# Random Circle Problem
param d := 0.05; 
param n := 10; 
param radius := 2.00; 
param v0 := 
1 5.73
2 5.72
3 5.48
4 5.51
5 5.92
6 5.59
7 5.74
8 5.74
9 5.63
10 5.40
;
param cap := 
1 2.86019
2 3.80498
3 4.59638
4 4.94622
5 5.37745
6 0.27150
7 0.44784
8 1.37843
9 2.19311
10 2.81866
;
param x0 := 
1 2.00
2 1.62
3 0.62
4 -0.62
5 -1.62
6 -2.00
7 -1.62
8 -0.62
9 0.62
10 1.62
;
param y0 := 
1 -0.00
2 1.18
3 1.90
4 1.90
5 1.18
6 0.00
7 -1.18
8 -1.90
9 -1.90
10 -1.18
;
